Data path: /scratch/opt/lxu/CFLG/benchmarks/tree_A
Instance: treeA.300.30
Result path: /scratch/opt/lxu/CFLG/results/tree_A
Solver: Gurobi
Time limit: 7200
Formulation: LEFPA
Cover: Small
julia --project=. src/main.jl /scratch/opt/lxu/CFLG/benchmarks/tree_A treeA.300.30 /scratch/opt/lxu/CFLG/results/tree_A Gurobi 7200 LEFPA Small
The latest version of Julia in the `release` channel is 1.11.6+0.x64.linux.gnu. You currently have `1.11.4+0.x64.linux.gnu` installed. Run:

  juliaup update

in your terminal shell to install Julia 1.11.6+0.x64.linux.gnu and update the `release` channel to that version.
/scratch/opt/lxu/CFLG/benchmarks/tree_A Gurobi 7200.0 /scratch/opt/lxu/CFLG/results/tree_A treeA.300.30 LEFPA Small
/scratch/opt/lxu/CFLG/benchmarks/tree_A/treeA.300.30

 read graph
data loaded


after absorb:190 300

max_piece:30
problem_graph/original graph: node: 190/300 edge: 219/329 dlt: 0.3798971386151679 break_avg_len: 2.282852211952333 break_max_len: 10.68450082426624Vbar/V, Ebar/E(189, 190, 218, 219)
Set parameter TokenServer to value "solice01.zib.de"
Set parameter Threads to value 1
Set parameter OutputFlag to value 1
Gurobi Optimizer version 12.0.1 build v12.0.1rc0 (linux64 - "Debian GNU/Linux 12 (bookworm)")

CPU model: Intel(R) Xeon(R) Gold 5222 CPU @ 3.80GHz, instruction set [SSE2|AVX|AVX2|AVX512]
Thread count: 8 physical cores, 16 logical processors, using up to 1 threads

Non-default parameters:
Threads  1

Optimize a model with 409 rows, 657 columns and 1095 nonzeros
Model fingerprint: 0x0d977527
Coefficient statistics:
  Matrix range     [1e+00, 1e+00]
  Objective range  [1e+00, 1e+00]
  Bounds range     [1e+00, 1e+00]
  RHS range        [1e+00, 1e+00]
Presolve removed 208 rows and 254 columns
Presolve time: 0.00s
Presolved: 201 rows, 403 columns, 633 nonzeros

Iteration    Objective       Primal Inf.    Dual Inf.      Time
       0    1.4700000e+02   5.000000e+01   0.000000e+00      0s
      85    9.9000000e+01   0.000000e+00   0.000000e+00      0s

Solved in 85 iterations and 0.00 seconds (0.00 work units)
Optimal objective  9.900000000e+01

User-callback calls 256, time in user-callback 0.00 sec
elapsed CPU time: 1.00473 seconds
Set parameter TokenServer to value "solice01.zib.de"
Set parameter Threads to value 1
Set parameter OutputFlag to value 1
Set parameter MIPGap to value 0.0001
Set parameter TimeLimit to value 7198.99527

 more cuts: false 0.3798971386151679 false
is_attach:trueformulation:LEFPA218 1 1

 model loaded

Gurobi Optimizer version 12.0.1 build v12.0.1rc0 (linux64 - "Debian GNU/Linux 12 (bookworm)")

CPU model: Intel(R) Xeon(R) Gold 5222 CPU @ 3.80GHz, instruction set [SSE2|AVX|AVX2|AVX512]
Thread count: 8 physical cores, 16 logical processors, using up to 1 threads

Non-default parameters:
TimeLimit  7198.99527
Threads  1

Optimize a model with 3330 rows, 2104 columns and 6476 nonzeros
Model fingerprint: 0xa9666ed8
Variable types: 628 continuous, 1476 integer (1476 binary)
Coefficient statistics:
  Matrix range     [2e-03, 1e+00]
  Objective range  [1e+00, 1e+00]
  Bounds range     [3e-01, 1e+01]
  RHS range        [4e-03, 1e+01]
Presolve removed 2434 rows and 1167 columns
Presolve time: 0.02s
Presolved: 896 rows, 937 columns, 2673 nonzeros
Variable types: 437 continuous, 500 integer (500 binary)
Found heuristic solution: objective 686.0000000
Found heuristic solution: objective 664.0000000
Found heuristic solution: objective 663.0000000

Root relaxation: objective 6.017130e+02, 894 iterations, 0.01 seconds (0.01 work units)

    Nodes    |    Current Node    |     Objective Bounds      |     Work
 Expl Unexpl |  Obj  Depth IntInf | Incumbent    BestBd   Gap | It/Node Time

     0     0  601.71297    0  262  663.00000  601.71297  9.24%     -    0s
     0     0  617.88404    0  269  663.00000  617.88404  6.80%     -    0s
H    0     0                     659.0000000  618.38404  6.16%     -    0s
     0     0  618.74319    0  280  659.00000  618.74319  6.11%     -    0s
     0     0  618.75811    0  283  659.00000  618.75811  6.11%     -    0s
     0     0  618.75830    0  285  659.00000  618.75830  6.11%     -    0s
     0     0  626.21370    0  255  659.00000  626.21370  4.98%     -    0s
H    0     0                     658.0000000  626.71370  4.75%     -    0s
     0     0  627.15941    0  258  658.00000  627.15941  4.69%     -    0s
     0     0  627.33838    0  246  658.00000  627.33838  4.66%     -    0s
     0     0  627.44273    0  247  658.00000  627.44273  4.64%     -    0s
     0     0  627.44304    0  249  658.00000  627.44304  4.64%     -    0s
     0     0  630.46641    0  237  658.00000  630.46641  4.18%     -    0s
H    0     0                     657.0000000  630.65706  4.01%     -    0s
H    0     0                     656.0000000  630.65706  3.86%     -    0s
     0     0  631.05944    0  237  656.00000  631.05944  3.80%     -    0s
     0     0  631.16896    0  243  656.00000  631.16896  3.79%     -    0s
     0     0  631.17382    0  240  656.00000  631.17382  3.78%     -    0s
     0     0  632.13709    0  234  656.00000  632.13709  3.64%     -    0s
     0     0  632.26456    0  238  656.00000  632.26456  3.62%     -    0s
     0     0  632.26587    0  245  656.00000  632.26587  3.62%     -    0s
     0     0  632.62278    0  228  656.00000  632.62278  3.56%     -    0s
H    0     0                     654.0000000  632.62278  3.27%     -    0s
     0     0  632.64284    0  224  654.00000  632.64284  3.27%     -    0s
     0     0  632.89284    0  212  654.00000  632.89284  3.23%     -    0s
     0     0  633.39284    0  210  654.00000  633.39284  3.15%     -    0s
     0     0  633.39284    0  212  654.00000  633.39284  3.15%     -    0s
     0     0  633.39284    0  158  654.00000  633.39284  3.15%     -    0s
H    0     0                     651.0000000  633.39284  2.70%     -    0s
H    0     0                     650.0000000  633.39284  2.55%     -    0s
     0     2  633.43451    0  128  650.00000  633.43451  2.55%     -    0s
H   27    27                     649.0000000  633.93451  2.32%  15.9    0s
H   90    90                     648.0000000  633.93451  2.17%  12.8    0s
H  108   107                     647.0000000  633.93451  2.02%  11.8    0s
H  549   472                     646.0000000  634.00278  1.86%  12.1    0s
H  591   475                     645.0000000  639.17634  0.90%  37.0    1s
H 1967   807                     644.0000000  640.00000  0.62%  27.6    3s
* 2179   528              79     643.0000000  640.00000  0.47%  26.8    4s
  2999   980  640.00000   33   94  643.00000  640.00000  0.47%  26.0    5s
  7095  3189  641.15016   48   85  643.00000  640.00000  0.47%  23.8   10s
 10203  4488  640.18187   49  158  643.00000  640.02009  0.46%  23.9   16s
 10269  4532  640.75362   34  145  643.00000  640.75362  0.35%  23.8   20s
 10383  4596  641.26704   49  164  643.00000  641.07921  0.30%  29.0   25s

Cutting planes:
  Learned: 3
  Gomory: 26
  Cover: 211
  Implied bound: 59
  Clique: 6
  MIR: 81
  Mixing: 6
  StrongCG: 4
  Flow cover: 361
  GUB cover: 5
  Zero half: 25
  RLT: 7
  Relax-and-lift: 3

Explored 11360 nodes (360391 simplex iterations) in 29.06 seconds (20.03 work units)
Thread count was 1 (of 16 available processors)

Solution count 10: 643 643 644 ... 651

Optimal solution found (tolerance 1.00e-04)
Warning: max constraint violation (1.0000e-06) exceeds tolerance
Best objective 6.430000000000e+02, best bound 6.430000000000e+02, gap 0.0000%

User-callback calls 36287, time in user-callback 0.03 sec

 sepatime0 0 0
643.0
Stat(MathOptInterface.OPTIMAL, 643.0, 643.0, 0.0, 0.0, 1.00473, 29.061487913131714, 11360, Main.CFLG.LEFPA, "", #undef)
